$molecule
0 1
6	2.3759582	4.9450822	0.0000000
1	4.2422402	5.8320232	0.0000000
1	1.3560957	5.6113297	1.6701228
1	1.3560957	5.6113297	-1.6701228
6	2.5777431	2.0710074	0.0000000
1	3.6524851	1.4479761	1.6594648
1	3.6524851	1.4479761	-1.6594648
6	0.0000000	0.7843761	0.0000000
1	-1.0837390	1.3833304	1.6605551
1	-1.0837390	1.3833304	-1.6605551
6	0.2103908	-2.1042628	0.0000000
1	1.2921190	-2.7161788	1.6592059
1	1.2921190	-2.7161788	-1.6592059
6	-4.3285478	-4.3576836	0.0000000
1	-6.1415849	-5.2357674	0.0000000
6	-2.2579750	-3.3467104	0.0000000
$end

$rem
   sym_ignore = true
   no_reorient = true
   BASIS  =  6-31+G
   EXCHANGE  =  HF
    scf_convergence = 7
    INPUT_BOHR = true 
 $end
