$molecule
0 1
6	2.3546723	-5.3118119	0.0000000
6	-3.3429366	5.3654083	0.0000000
6	1.7857778	-0.5562956	0.0000000
6	0.0000000	1.5539633	0.0000000
6	0.4682250	-3.1357263	0.0000000
6	-1.5256892	3.2851412	0.0000000
1	1.3897083	-7.1387971	0.0000000
1	-5.2835019	4.6540720	0.0000000
1	3.5701554	-5.2374153	1.6710053
1	3.5701554	-5.2374153	-1.6710053
1	-0.7623703	-3.2574624	-1.6590906
1	-0.7623703	-3.2574624	1.6590906
1	3.0243874	-0.4232079	-1.6584122
1	3.0243874	-0.4232079	1.6584122
1	-3.1054170	6.5584074	1.6709071
1	-3.1054170	6.5584074	-1.6709071
$end

$rem
   sym_ignore = true
   no_reorient = true
   BASIS  =  6-31+G
   EXCHANGE  =  HF
    scf_convergence = 7
  unrestricted = true
    INPUT_BOHR = true 
 $end
