$molecule
0 1
6	0.0000000	4.9742577	1.6535272
6	0.0000000	-4.9742577	1.6535272
6	0.0000000	-3.9199890	-1.0404831
6	0.0000000	3.9199890	-1.0404831
6	0.0000000	1.1547001	-1.0902056
6	0.0000000	-1.1547001	-1.0902056
1	0.0000000	7.0407940	1.6259807
1	0.0000000	-7.0407940	1.6259807
1	-1.6709203	-4.3343738	2.6823886
1	1.6709203	-4.3343738	2.6823886
1	-1.6709203	4.3343738	2.6823886
1	1.6709203	4.3343738	2.6823886
1	-1.6569911	-4.6265028	-2.0638945
1	1.6569911	-4.6265028	-2.0638945
1	-1.6569911	4.6265028	-2.0638945
1	1.6569911	4.6265028	-2.0638945
$end

$rem
   sym_ignore = true
   no_reorient = true
   BASIS  =  6-31+G
   EXCHANGE  =  HF
    scf_convergence = 7
  unrestricted = true
    INPUT_BOHR = true 
 $end
