$molecule
0	1
6	0.00000	0.00000	0.35352
6	0.00000	2.42671	-1.17102
6	0.00000	-2.42671	-1.17102
8       0.00000 0.00000 2.66064
1	0.00000	4.03707	0.11405
1	0.00000	-4.03707	0.11405
1	1.66550	2.50960	-2.39552
1	-1.66550	2.50960	-2.39552
1	-1.66550	-2.50960	-2.39552
1	1.66550	-2.50960	-2.39552
$end

$rem
   BASIS  =  6-31+G
   EXCHANGE  =  HF
    scf_convergence = 7
    INPUT_BOHR = true 
 $end
