$molecule
0	1
6	-2.59112	-0.54152	-0.00014
6	0.15345	0.29355	0.00259
7	1.84990	-1.66750	-0.06041
8	0.80775	2.51271	0.00828
1	-3.77636	1.13622	-0.11082
1	-2.98825	-1.77647	-1.61005
1	-3.03973	-1.58385	1.72854
1	3.70176	-1.23772	0.12934
1	1.31734	-3.47958	0.20495
$end

$rem
   sym_ignore = true
   no_reorient = true
   BASIS  =  6-31+G
   EXCHANGE  =  HF
    scf_convergence = 7
    INPUT_BOHR = true 
 $end
