$molecule
0	1
6	1.88847	-1.84208	0.00000
6	0.00000	0.27331	0.00000
8	0.53315	2.52269	0.00000
1	3.75097	-0.98186	0.00000
1	1.65229	-3.03738	1.66819
1	1.65229	-3.03738	-1.66819
8	-2.40471	-0.58398	0.00000
1	-3.41380	0.95959	0.00000
$end

$rem
   sym_ignore = true
   no_reorient = true
   BASIS  =  6-31+G
   EXCHANGE  =  HF
    scf_convergence = 7
    INPUT_BOHR = true 
 $end
