$molecule
0	1
6	0.	0.	0.
6	0.	0.	2.477821945
6	0.	0.	-2.477821945
1	0.	1.75164938	3.54626924
1	0.	-1.75164938	3.54626924
1	1.75164938	0.	-3.54626924
1	-1.75164938	0.	-3.54626924
$end

$rem
   sym_ignore = true
   no_reorient = true
   BASIS  =  6-31+G
   EXCHANGE  =  HF
    INPUT_BOHR = true 
 $end
