$molecule
0	1
9  0.0 0.0  0.1764787028988246 
1  0.0 0.0  -1.588310215805586  
$end

$rem
pathn = 20 
 DIRECT_SCF = true 
 max_SCF_CYCLES = 50 
 THRESH = 10 
   sym_ignore = true
   no_reorient = true
BASIS = 6-31G 
 SCF_CONVERGENCE = 6 
 SCF_FINAL_PRINT = 2 
   EXCHANGE  =  HF
    scf_convergence = 7
    INPUT_BOHR = true 
 $end
