$molecule
0	2
4	0.0	0.0	0.5095695226576968
1	0.0	0.0	-2.0382780906307874
$end

$rem
   sym_ignore = true
   no_reorient = true
   BASIS  =  6-31+G
   EXCHANGE  =  HF
    INPUT_BOHR = true 
 $end
