$molecule
0 1
6	0.	2.639196985	0.
6	2.285612245	1.319599438	0.
6	2.285612245	-1.319599438	0.
6	0.	-2.639196985	0.
6	-2.285612245	-1.319599438	0.
6	-2.285612245	1.319599438	0.
1	0.	4.693338584	0.
1	4.064549269	2.346669292	0.
1	4.064549269	-2.346669292	0.
1	0.	-4.693338584	0.
1	-4.064549269	-2.346669292	0.
1	-4.064549269	2.346669292	0.
$end

$rem
   sym_ignore = true
   no_reorient = true
   BASIS  =  6-31+G
   EXCHANGE  =  HF
    scf_convergence = 7
  unrestricted = true
   GUI  =  2
    INPUT_BOHR = true 
 $end
