$molecule
0	1
6	0.0	0.0	1.1490986053894705
6	0.0	0.0	-1.1490986053894705
$end

$rem
   sym_ignore = true
   no_reorient = true
   BASIS  =  6-31+G
   EXCHANGE  =  HF
    scf_convergence = 10
    INPUT_BOHR = true 
 $end
