$molecule
0	1
6	0.0	0.0	1.4403586681280474
6	0.0	0.0	-1.4403586681280474
$end

$rem
   sym_ignore = true
   no_reorient = true
   BASIS  =  6-31+G
   EXCHANGE  =  HF
    scf_convergence = 10
  unrestricted = true
   GUI  =  2
    INPUT_BOHR = true 
 $end
