$molecule
0	1
6	0.0	0.0	1.1490986053894705
6	0.0	0.0	-1.1490986053894705
1	0.0	0.0	-3.163365962432443
1	0.0	0.0	3.163365962432443
$end

$rem
   sym_ignore = true
   no_reorient = true
   BASIS  =  6-31+G
   EXCHANGE  =  HF
    scf_convergence = 10
  unrestricted = true
   GUI  =  2
    INPUT_BOHR = true 
 $end
