$molecule
0	1
8	0.	0.	1.616807982
6	0.	1.381368911	-0.698174384
6	0.	-1.381368911	-0.698174384
1	1.737215653	2.3909588	-1.139090921
1	-1.737215653	2.3909588	-1.139090921
1	-1.737215653	-2.3909588	-1.139090921
1	1.737215653	-2.3909588	-1.139090921
$end

$rem
   sym_ignore = true
   no_reorient = true
   BASIS  =  6-31+G
   EXCHANGE  =  HF
    INPUT_BOHR = true 
 $end
