$molecule
0	1
6	-1.85468	0.00000	0.00000
6	1.85468	0.00000	0.00000
8	0.00000	1.97298	0.00000
8	0.00000	-1.97298	0.00000
1	-3.02916	0.00000	1.70828
1	3.02916	0.00000	1.70828
1	-3.02916	0.00000	-1.70828
1	3.02916	0.00000	-1.70828
$end

$rem
   sym_ignore = true
   no_reorient = true
   BASIS  =  6-31+G
   EXCHANGE  =  HF
    scf_convergence = 7
    INPUT_BOHR = true 
 $end
