$molecule
0	1
6	2.201572351	-0.76544863	0.
6	0.	1.0555159	0.
8	-2.247003254	-0.418613991	0.
1	-3.681475355	0.719620885	0.
1	3.993767692	0.263074424	0.
1	2.121903393	-1.968758109	1.67482446
1	2.121903393	-1.968758109	-1.67482446
1	0.10524451	2.281657049	1.67551232
1	0.10524451	2.281657049	-1.67551232
$end

$rem
   sym_ignore = true
   no_reorient = true
   BASIS  =  6-31+G
   EXCHANGE  =  HF
    INPUT_BOHR = true 
 $end
