$molecule
0	1
6	0.0	0.0	1.4403586681280474
6	0.0	0.0	-1.4403586681280474
1	0.0	1.9255395139650024	2.1868343474810086
1	-1.6675668014664198	-0.9627707018405837	2.1868343474810086
1	1.6675668014664198	-0.9627707018405837	2.1868343474810086
1	0.0	-1.9255395139650024	-2.1868343474810086
1	-1.6675668014664198	0.9627707018405837	-2.1868343474810086
1	1.6675668014664198	0.9627707018405837	-2.1868343474810086
$end

$rem
   sym_ignore = true
   no_reorient = true
   BASIS  =  6-31+G
   EXCHANGE  =  HF
  unrestricted = true
    INPUT_BOHR = true 
 $end
