$molecule
0	1
6	0.	0.	0.
6	0.	0.	2.461814076
6	0.	0.	-2.461814076
$end

$rem
   sym_ignore = true
   no_reorient = true
   BASIS  =  6-31+G
   EXCHANGE  =  HF
    INPUT_BOHR = true 
 $end
