$molecule
0	1
6	0.	0.875886106	0.
6	-1.781338865	-1.344806493	0.
8	2.294280418	0.711810647	0.
1	-0.948958031	2.750581215	0.
1	-0.704125132	-3.101433411	0.
1	-3.006563497	-1.265058166	1.665613935
1	-3.006563497	-1.265058166	-1.665613935
$end

$rem
   sym_ignore = true
   no_reorient = true
   BASIS  =  6-31+G
   EXCHANGE  =  HF
    INPUT_BOHR = true 
 $end
