$molecule
0	1
6	0.	0.	-2.357727969
6	0.	0.	0.406168255
6	0.	0.	2.708457333
1	0.	0.	4.723526957
1	0.	1.931632553	-3.088305485
1	1.672842137	-0.965816276	-3.088305485
1	-1.672842137	-0.965816276	-3.088305485
$end

$rem
   sym_ignore = true
   no_reorient = true
   BASIS  =  6-31+G
   EXCHANGE  =  HF
    INPUT_BOHR = true 
 $end
