$molecule
0	1
6	-2.15709576	-0.931752076	0.
6	0.	0.902705097	0.
6	2.443574441	0.255203715	0.
1	3.041102019	-1.710211469	0.
1	3.933661178	1.664674742	0.
1	-0.511297492	2.897949606	0.
1	-1.470524293	-2.880297676	0.
1	-3.355911472	-0.664529703	1.665281344
1	-3.355911472	-0.664529703	-1.665281344
$end

$rem
   sym_ignore = true
   no_reorient = true
   BASIS  =  6-31+G
   EXCHANGE  =  HF
    INPUT_BOHR = true 
 $end
