$molecule
0	1
6	0.	0.	1.110578736
6	0.	2.393765043	-0.491990161
6	0.	-2.393765043	-0.491990161
1	1.65882415	0.	2.3499234
1	-1.65882415	0.	2.3499234
1	0.	4.09102055	0.688034115
1	0.	-4.09102055	0.688034115
1	1.670761549	2.462766498	-1.708873543
1	-1.670761549	2.462766498	-1.708873543
1	-1.670761549	-2.462766498	-1.708873543
1	1.670761549	-2.462766498	-1.708873543
$end

$rem
   sym_ignore = true
   no_reorient = true
   BASIS  =  6-31+G
   EXCHANGE  =  HF
    INPUT_BOHR = true 
 $end
