$molecule
0	1
6	2.299120007	-0.202848857	0.
6	0.	0.840062571	0.
8	-2.263887955	-0.403824995	0.
1	2.583255427	-2.234444135	0.
1	3.959556093	0.987833474	0.
1	-0.302308915	2.867430531	0.
1	-1.924128451	-2.213490853	0.
$end

$rem
   sym_ignore = true
   no_reorient = true
   BASIS  =  6-31+G
   EXCHANGE  =  HF
    INPUT_BOHR = true 
 $end
