$molecule
0	3
6	0.	0.	0.208587955
1	0.	1.856854205	-0.625763864
1	0.	-1.856854205	-0.625763864
$end

$rem
   sym_ignore = true
   no_reorient = true
   BASIS  =  6-31+G
   EXCHANGE  =  HF
    scf_convergence = 7
    INPUT_BOHR = true 
 $end
