$molecule
0	1
8	0.	0.	1.121399307
6	0.	2.200706857	-0.372121062
6	0.	-2.200706857	-0.372121062
1	0.	3.806270969	0.920787885
1	0.	-3.806270969	0.920787885
1	1.684397812	2.313049177	-1.586829369
1	-1.684397812	2.313049177	-1.586829369
1	-1.684397812	-2.313049177	-1.586829369
1	1.684397812	-2.313049177	-1.586829369
$end

$rem
   sym_ignore = true
   no_reorient = true
   BASIS  =  6-31+G
   EXCHANGE  =  HF
   UNRESTRICTED = true 
   INPUT_BOHR = true 
 $end
