$molecule
0	1
6	-0.0890642125552742	1.2555066329037379	0.0
8	-0.0890642125552742	-1.4334460863978231	0.0
1	-2.0654503193620317	1.8326183907177143	0.0
1	1.6601799009788731	-1.981288030537813	0.0
1	0.8260799727880873	2.0416039910805397	1.6851959635662725
1	0.8260799727880873	2.0416039910805397	-1.6851959635662725
$end

$rem
   sym_ignore = true
   no_reorient = true
   BASIS  =  6-31+G
   EXCHANGE  =  HF
    scf_convergence = 10
  unrestricted = true
    INPUT_BOHR = true 
 $end
