$molecule
0	1
6	0.0	0.0	0.0
1	1.188854454061	1.188854454061	1.188854454061
1	-1.188854454061	-1.188854454061	1.188854454061
1	1.188854454061	-1.188854454061	-1.188854454061
1	-1.188854454061	1.188854454061	-1.188854454061
$end

$rem
   sym_ignore = true
   no_reorient = true
   BASIS  =  6-31+G
   EXCHANGE  =  HF
    scf_convergence = 7
    INPUT_BOHR = true 
 $end
