$molecule
-1	3
6	0.0	0.0	0.0
1	0.0	0.0	2.194007778
$end

$rem
   sym_ignore = true
   no_reorient = true
   BASIS  =  6-31+G
   EXCHANGE  =  HF
    scf_convergence = 7
    INPUT_BOHR = true 
 $end
