$molecule
0	2
6	0.0	0.0	-1.1547035035337692
7	0.0	0.0	0.9897445103745418
$end

$rem
   sym_ignore = true
   no_reorient = true
   BASIS  =  6-31+G
   EXCHANGE  =  HF
    scf_convergence = 10
  unrestricted = true
   GUI  =  2
    INPUT_BOHR = true 
 $end
