$molecule
0	1
6	0.0	0.0	0.0
8	0.0	0.0	2.2273290751729093
8	0.0	0.0	-2.2273290751729093
$end

$rem
   BASIS  =  6-31+G
   EXCHANGE  =  HF
    INPUT_BOHR = true 
 $end
