$molecule
0	1
6	-0.0890642125552742	1.2555066329037379	0.0
8	-0.0890642125552742	-1.4334460863978231	0.0
$end

$rem
   sym_ignore = true
   no_reorient = true
   BASIS  =  6-31+G
   EXCHANGE  =  HF
    scf_convergence = 10
  unrestricted = true
    INPUT_BOHR = true 
 $end
