$molecule
12	1
6	0.0	0.0	0.0
8	0.0	0.0	2.2273290751729093
$end

$rem
   sym_ignore = true
   no_reorient = true
   BASIS  =  6-31+G
   EXCHANGE  =  HF
    scf_convergence = 10
  unrestricted = true
    INPUT_BOHR = true 
 $end
