$molecule
1	2
8	0.0	0.0	0.0
6	0.0	0.0	2.083545735
$end

$rem
   sym_ignore = true
   no_reorient = true
   BASIS  =  6-31+G
   EXCHANGE  =  HF
    INPUT_BOHR = true 
 $end
