$molecule
0 1
6	-9.960886473	1.591259076	-0.943468944
6	-9.930415586	-1.060579799	-1.01258227
6	-7.720072827	2.946502903	-0.562530042
6	-5.416523681	1.66941682	-0.245219915
6	-5.367602077	-0.995709852	-0.311876787
6	-7.623948325	-2.360336735	-0.695455825
6	-3.160695218	3.012387255	0.13767731
6	-0.871518949	1.722794587	0.452438007
6	-0.804768347	-0.92885985	0.3888869
6	-3.062593117	-2.294292891	0.005058985
6	1.481399478	-2.238010615	0.702642642
6	1.529595049	-4.882913628	0.636437225
6	-0.70755952	-6.257303592	0.255526103
6	-3.014027537	-4.957549489	-0.061600532
6	-7.575383123	-5.02359598	-0.762115531
6	-5.270373785	-6.322176562	-0.44517957
6	-0.677086176	-8.909142277	0.186413154
6	-2.91790001	-10.26438799	-0.194525748
6	-5.221451236	-8.987304178	-0.511836442
6	-7.477280454	-10.33027367	-0.894733666
6	-9.766454644	-9.040679678	-1.209494175
6	-9.833210349	-6.389021272	-1.145943635
6	-12.11937628	-5.079873342	-1.459699187
6	-12.16757015	-2.434968062	-1.393493204
1	-11.71889667	2.612578494	-1.184333229
1	-7.784118665	4.992330274	-0.515420118
1	-3.171472514	5.058969571	0.19296748
1	0.848262659	2.794132407	0.745669813
1	3.228465894	-1.212559688	0.998776877
1	3.313382432	-5.857176412	0.882559107
1	1.080926478	-9.930457916	0.427278007
1	-2.853849638	-12.31021499	-0.241634916
1	-7.466502969	-12.37685617	-0.950023836
1	-11.4862389	-10.11201769	-1.502726169
1	-13.86644516	-6.105319355	-1.755833611
1	-13.95135603	-1.460701309	-1.639614896
$end

$rem
   sym_ignore = true
   no_reorient = true
   BASIS  =  6-31+G
   EXCHANGE  =  HF
    scf_convergence = 7
  unrestricted = true
   GUI  =  2
    INPUT_BOHR = true 
 $end
