$molecule
0	1
6	0.62393	-2.22156	0.00000
6	-0.16067	-0.63475	2.31073
6	-0.16067	-0.63475	-2.31073
6	-0.16067	2.01454	1.26595
6	-0.16067	2.01454	-1.26595
1	2.68150	-2.43277	0.00000
1	-0.20163	-4.11611	0.00000
1	-2.05851	-1.14915	2.97833
1	-2.05851	-1.14915	-2.97833
1	-0.24826	3.69159	2.44672
1	-0.24826	3.69159	-2.44672
1	1.12308	-0.88207	-3.91525
1	1.12308	-0.88207	3.91525
$end

$rem
   sym_ignore = true
   no_reorient = true
   BASIS  =  6-31+G
   EXCHANGE  =  HF
    scf_convergence = 7
    INPUT_BOHR = true 
 $end
