$molecule
0	1
6	0.	0.	1.61716703
6	0.	1.229253528	-0.941839433
6	0.	-1.229253528	-0.941839433
1	0.	3.001020931	-1.951276254
1	0.	-3.001020931	-1.951276254
1	1.722855625	0.	2.750809872
1	-1.722855625	0.	2.750809872
$end

$rem
   sym_ignore = true
   no_reorient = true
   BASIS  =  6-31+G
   EXCHANGE  =  HF
    INPUT_BOHR = true 
 $end
