$molecule
0 1
6	0.	-2.749470056	0.439939549
6	-2.381109548	1.374734083	0.439939549
6	2.381109548	1.374734083	0.439939549
6	0.	2.749470056	-0.439939549
6	-2.381109548	-1.374734083	-0.439939549
6	2.381109548	-1.374734083	-0.439939549
1	0.	-2.849606636	2.513343124
1	-2.467830964	1.424802373	2.513343124
1	2.467830964	1.424802373	2.513343124
1	0.	2.849606636	-2.513343124
1	-2.467830964	-1.424802373	-2.513343124
1	2.467830964	-1.424802373	-2.513343124
1	0.	-4.703628142	-0.248612351
1	-4.073461217	2.351813126	-0.248612351
1	4.073461217	2.351813126	-0.248612351
1	0.	4.703628142	0.248612351
1	-4.073461217	-2.351813126	0.248612351
1	4.073461217	-2.351813126	0.248612351
$end

$rem
   sym_ignore = true
   no_reorient = true
   BASIS  =  6-31+G
   EXCHANGE  =  HF
    scf_convergence = 7
  unrestricted = true
    INPUT_BOHR = true 
 $end
