$molecule
8 2
9	0.0	0.0    0.0
$end

$rem
 BASIS  =  6-31+G
   EXCHANGE  =  HF
    INPUT_BOHR = true 
 $end
