$molecule
0 1
9	0.00000	0.00000	4.31722
6	0.00000	0.00000	1.75302
6	0.00000	2.29910	0.49035
6	0.00000	-2.29910	0.49035
6	0.00000	2.28244	-2.14526
6	0.00000	-2.28244	-2.14526
6	0.00000	0.00000	-3.46608
1	0.00000	4.04558	1.56595
1	0.00000	-4.04558	1.56595
1	0.00000	4.06461	-3.16546
1	0.00000	-4.06461	-3.16546
1	0.00000	0.00000	-5.51884
$end

$rem
   sym_ignore = true
   no_reorient = true
   BASIS  =  6-31+G
   EXCHANGE  =  HF
    scf_convergence = 7
    INPUT_BOHR = true 
 $end
