$molecule
0 1
	8	0.	0.	1.280423528
	6	0.	0.	-0.999479855
	1	0.	1.772149127	-2.123254547
	1	0.	-1.772149127	-2.123254547
$end

$rem
 BASIS  =  6-31+G
   EXCHANGE  =  HF
    INPUT_BOHR = true 
 $end
