$molecule
0	1
7	0.0	1.35862844400771	-0.14680637968177182
7	0.0	-1.35862844400771	-0.14680637968177182
1	0.39888506746286706	2.064991118334026	1.6022657696813938
1	-1.791855323330436	1.8992138780755132	-0.5746211119089913
1	-0.39888506746286706	-2.064991118334026	1.6022657696813938
1	1.791855323330436	-1.8992138780755132	-0.5746211119089913
$end

$rem
   sym_ignore = true
   no_reorient = true
   BASIS  =  6-31+G
   EXCHANGE  =  HF
   unrestricted = true
    scf_convergence = 10
    INPUT_BOHR = true 
 $end
