$molecule
0 1
8	0.0	0.0	0.22537132922635023
1	0.0	1.4423050757776184	-0.9014834271892362
1	0.0	-1.4423050757776184	-0.9014834271892362
$end

$rem
   sym_ignore = true
   no_reorient = true
   BASIS  =  6-31+G
   EXCHANGE  =  HF
    scf_convergence = 7
    INPUT_BOHR = true 
 $end
