$molecule
0 1
8	0.0	1.3871612683774897	-0.09968252768434181
8	0.0	-1.3871612683774897	-0.09968252768434181
1	1.5865055368683625	1.664371291432027	0.7974621111908992
1	-1.5865055368683625	-1.664371291432027	0.7974621111908992
$end

$rem
   sym_ignore = true
   no_reorient = true
   BASIS  =  6-31+G
   EXCHANGE  =  HF
   unrestricted = true
SCF_CONVERGENCE = 10
    INPUT_BOHR = true 
 $end
