$molecule
1	2
  8        0.00000        0.00000        0.00000
  1        1.90926        0.00000        0.00000
  1       -0.65167        1.79460        0.00000
$end

$rem
   sym_ignore = true
   no_reorient = true
   BASIS  =  6-31+G
   EXCHANGE  =  HF
    scf_convergence = 7
    INPUT_BOHR = true 
 $end
