$molecule
14	2
6	0.11822064325938246	1.122351562795268	0.0
8	0.11822064325938246	-1.1279980346951888	0.0
1	-1.6550795570505312	2.2898730110737366	0.0
$end

$rem
   sym_ignore = true
   no_reorient = true
   BASIS  =  6-31+G
   EXCHANGE  =  HF
SCF_CONVERGENCE = 10
    INPUT_BOHR = true 
 $end
