$molecule
0 1
6	2.620290277	5.463322556	0.
6	-2.620290277	-5.463322556	0.
6	0.	1.441137165	0.
6	0.	-1.441137165	0.
6	-2.646854155	-2.58220096	0.
6	2.646854155	2.58220096	0.
1	-4.535801577	-6.239739155	0.
1	4.535801577	6.239739155	0.
1	1.641406545	6.18964063	1.669958415
1	1.641406545	6.18964063	-1.669958415
1	-1.641406545	-6.18964063	-1.669958415
1	-1.641406545	-6.18964063	1.669958415
1	3.683383978	1.895506661	-1.658593603
1	3.683383978	1.895506661	1.658593603
1	-3.683383978	-1.895506661	-1.658593603
1	-3.683383978	-1.895506661	1.658593603
1	-1.039470236	2.127309899	1.660086487
1	-1.039470236	2.127309899	-1.660086487
1	1.039470236	-2.127309899	-1.660086487
1	1.039470236	-2.127309899	1.660086487
$end

$rem
   sym_ignore = true
   no_reorient = true
   BASIS  =  6-31+G
   EXCHANGE  =  HF
    scf_convergence = 7
  unrestricted = true
    INPUT_BOHR = true 
 $end
