$molecule
0 1
1	-4.37205871	-1.796832729	0.
1	-4.851334795	-5.24874606	0.
6	-3.542644745	-3.670698247	0.
1	-0.349340416	-5.99011958	0.
6	-1.043897864	-4.050557738	0.
1	2.188637177	-2.328250133	1.650008578
1	2.188637177	-2.328250133	-1.650008578
6	0.960092296	-2.039435751	0.
1	-1.200875513	0.984316694	-1.661275124
1	-1.200875513	0.984316694	1.661275124
6	0.	0.67441486	0.
1	3.341379479	2.294501516	1.658841157
1	3.341379479	2.294501516	-1.658841157
6	2.138355348	2.607228491	0.
1	0.017020762	5.693738736	-1.670032115
1	0.017020762	5.693738736	1.670032115
1	2.739051996	6.678388021	0.
6	1.178319743	5.323832432	0.
$end

$rem
   sym_ignore = true
   no_reorient = true
   BASIS  =  6-31+G
   EXCHANGE  =  HF
    scf_convergence = 7
  unrestricted = true
    INPUT_BOHR = true 
 $end
