$molecule
0	1
9  0.0 0.0  0.1764787028988246 
1  0.0 0.0  -1.588310215805586  
$end

$rem
   sym_ignore = true
   no_reorient = true
   BASIS  =  6-31+G
   EXCHANGE  =  HF
    scf_convergence = 7
    INPUT_BOHR = true 
 $end
