$molecule
0	1
3	0.0	0.0	2.6201481537473073
3	0.0	0.0	-2.6201481537473073
$end

$rem
   sym_ignore = true
   no_reorient = true
   BASIS  =  6-31+G
   EXCHANGE  =  HF
    scf_convergence = 10
  unrestricted = true
   GUI  =  2
    INPUT_BOHR = true 
 $end
