$molecule
0	1
7	0.0	0.0	1.0676707358554745
7	0.0	0.0	-1.0676707358554745
$end

$rem
   sym_ignore = true
   no_reorient = true
   BASIS  =  6-31+G
   EXCHANGE  =  HF
    scf_convergence = 7
    INPUT_BOHR = true 
 $end
