$molecule
0	3
7	0.0	0.0	0.24552893155448052
1	0.0	0.0	-1.7186987414490345
$end

$rem
   sym_ignore = true
   no_reorient = true
   BASIS  =  6-31+G
   EXCHANGE  =  HF
    scf_convergence = 7
    INPUT_BOHR = true 
 $end
