$molecule
0	1
7	0.0	0.0	0.22013114630182548
1	0.0	1.775824861105862	-0.5136399712763143
1	1.537909595978684	-0.8879114856948487	-0.5136399712763143
1	-1.537909595978684	-0.8879114856948487	-0.5136399712763143
$end

$rem
   sym_ignore = true
   no_reorient = true
   BASIS  =  6-31+G
   EXCHANGE  =  HF
    scf_convergence = 7
    INPUT_BOHR = true 
 $end
