$molecule
-1	2
7	0.0	0.0	0.0
1	0.0	0.0	1.998292636
$end

$rem
   sym_ignore = true
   no_reorient = true
   BASIS  =  6-31+G
   EXCHANGE  =  HF
    scf_convergence = 7
    INPUT_BOHR = true 
 $end
