$molecule
0	2
8	0.	0.	1.007736068
7	0.	0.	-1.151697283
$end

$rem
   sym_ignore = true
   no_reorient = true
   BASIS  =  6-31+G
   EXCHANGE  =  HF
  SCF_ALGORITHM =  DIIS_GDM 
MAX_SCF_CYCLES = 300
  unrestricted = true
   GUI  =  2
    INPUT_BOHR = true 
 $end
