$molecule
0	3
8 0.0 0.0 0.0
$end

$rem
   sym_ignore = true
   no_reorient = true
   BASIS  =  6-31+G
   EXCHANGE  =  HF
    scf_convergence = 7
   SCF_FINAL_PRINT = 2
    INPUT_BOHR = true 
 $end
