$molecule
0 1
8	0.0	1.3871612683774897	-0.09968252768434181
8	0.0	-1.3871612683774897	-0.09968252768434181
$end

$rem
   sym_ignore = true
   no_reorient = true
   BASIS  =  6-31+G
   EXCHANGE  =  HF
   unrestricted = true
SCF_CONVERGENCE = 10
    INPUT_BOHR = true 
 $end
