$molecule
-1 2
8	0.0	0.0    1.303986521	
8	0.0	0.0    -1.303986521
$end

$rem
   sym_ignore = true
   no_reorient = true
   BASIS  =  6-31+G
   EXCHANGE  =  HF
    scf_convergence = 7
    INPUT_BOHR = true 
 BASIS2 = 6-31G
 $end
