$molecule
1  2
8	0.0	0.0	2.242911996
8       0.0     0.0     0.0
$end

$rem
   sym_ignore = true
   no_reorient = true
   BASIS  =  6-31+G
   EXCHANGE  =  HF
    scf_convergence = 7
    INPUT_BOHR = true 
 $end
