$molecule
4 1
8	0.0	0.0    0.0
$end

$rem
 BASIS  =  6-31+G
   EXCHANGE  =  HF
    INPUT_BOHR = true 
 $end
