$molecule
0	2
8	0.0	0.0	0.2055746626856646
1	0.0	0.0	-1.6445897426206584
$end

$rem
   sym_ignore = true
   no_reorient = true
   BASIS  =  6-31+G
   EXCHANGE  =  HF
    scf_convergence = 7
    INPUT_BOHR = true 
 $end
