$molecule
-1 3
8	0.0	0.0	0.00000000
1	0.0	0.0     1.955074603	
$end

$rem
   BASIS  =  6-31+G
   EXCHANGE  =  HF
    INPUT_BOHR = true 
 $end
