$molecule
-1	2
8	0.0	0.0	0.7747836274991496
$end

$rem
   sym_ignore = true
   no_reorient = true
   BASIS  =  6-31+G
   EXCHANGE  =  HF
    scf_convergence = 7
  unrestricted = true
   GUI  =  2
    INPUT_BOHR = true 
 $end
