$molecule
0	1
9  0.0 0.0  0.1764787028988246 
1  0.0 0.0  -1.588310215805586  
$end

$rem
   symmetry = off
   iprint = 200 
   pathn = 10
   sym_ignore = true
   no_reorient = true
   BASIS  =  general 
   EXCHANGE  =  HF
    scf_convergence = 7
    INPUT_BOHR = true 
 $end

 
$basis 
F     0 
S 1 1.
 9.252 1.   
SP   3   1.00
     20.8479528             -0.108506975            0.0716287243     
      4.80830834            -0.146451658            0.3459121030     
      1.34406986             1.128688580            0.7224699570     
SP   1   1.00
      0.358151393            1.0000000              1.0000000    
****
H     0 
S   3   1.00
     18.7311370              0.03349460       
      2.8253937              0.23472695       
      0.6401217              0.81375733       
S   1   1.00
      0.1612778              1.0000000 
****
$end