$molecule
0	1
6	-3.90886	1.08545	0.22893
6	-2.21121	-0.50664	-0.75716
6	-0.10786	-1.72973	0.68991
6	2.50768	-0.96785	-0.29614
6	3.05037	1.84083	0.03545
1	-5.39190	1.92722	-0.90940
1	-3.87172	1.59048	2.21848
1	-2.31517	-0.96118	-2.76545
1	-0.29913	-3.79250	0.57250
1	-0.26491	-1.22613	2.69527
1	3.94880	-2.07824	0.69440
1	2.65208	-1.47831	-2.30004
1	4.93186	2.32695	-0.66749
1	1.66638	2.99006	-0.97754
1	2.96298	2.36926	2.03331
$end

$rem
   sym_ignore = true
   no_reorient = true
   BASIS  =  6-31+G
   EXCHANGE  =  HF
    scf_convergence = 7
    INPUT_BOHR = true 
 $end
