$molecule
0 1
8	0.00000	0.00000	0.62709
6	0.00000	2.25449	-0.99368
6	0.00000	-2.25449	-0.99368
6	0.00000	4.55091	0.72541
6	0.00000	-4.55091	0.72541
1	1.64308	2.23144	-2.14864
1	-1.64308	2.23144	-2.14864
1	1.64308	-2.23144	-2.14864
1	-1.64308	-2.23144	-2.14864
1	0.00000	6.22199	-0.39725
1	0.00000	-6.22199	-0.39725
1	-1.64316	4.51981	1.89788
1	1.64316	4.51981	1.89788
1	1.64316	-4.51981	1.89788
1	-1.64316	-4.51981	1.89788
$end

$rem
   sym_ignore = true
   no_reorient = true
   BASIS  =  6-31+G
   EXCHANGE  =  HF
    scf_convergence = 7
    INPUT_BOHR = true 
 $end
