$molecule
0	1
6	-2.63969	0.86690	0.00000
6	-2.72439	-2.00840	0.00000
6	0.00000	1.94177	0.00000
6	2.07752	0.58399	0.00000
6	4.15918	-0.76479	0.00000
1	-3.65201	1.60429	1.65306
1	-3.65201	1.60429	-1.65306
1	-4.67722	-2.68156	0.00000
1	-1.77457	-2.77132	-1.66710
1	-1.77457	-2.77132	1.66710
1	0.17056	3.99555	0.00000
1	5.06201	-1.34835	-1.74911
1	5.06201	-1.34835	1.74911
$end

$rem
   sym_ignore = true
   no_reorient = true
   BASIS  =  6-31+G
   EXCHANGE  =  HF
    scf_convergence = 7
    INPUT_BOHR = true 
 $end
