$molecule
0	1
6	5.00436	0.40185	0.00000
6	2.73193	0.78338	0.00000
6	0.00000	1.20630	0.00000
6	-1.51007	-1.26529	0.00000
6	-4.35122	-0.78989	0.00000
1	6.99113	0.06895	0.00000
1	-0.52338	2.33297	1.65937
1	-0.52338	2.33297	-1.65937
1	-0.97312	-2.37855	1.65904
1	-0.97312	-2.37855	-1.65904
1	-5.40520	-2.56675	0.00000
1	-4.92147	0.28545	1.67109
1	-4.92147	0.28545	-1.67109
$end

$rem
   sym_ignore = true
   no_reorient = true
   BASIS  =  6-31+G
   EXCHANGE  =  HF
    scf_convergence = 7
    INPUT_BOHR = true 
 $end
