$molecule
0	1
6	0.00000	0.00000	1.28991
6	0.00000	2.34110	-0.31754
6	0.00000	-2.34110	-0.31754
6	1.86673	4.04340	-0.36437
6	-1.86673	-4.04340	-0.36437
1	-1.66923	-0.02134	2.52077
1	1.66923	0.02134	2.52077
1	-1.63726	2.59403	-1.54024
1	1.63726	-2.59403	-1.54024
1	1.79343	5.69184	-1.58091
1	-1.79343	-5.69184	-1.58091
1	3.53019	3.84319	0.82209
1	-3.53019	-3.84319	0.82209
$end

$rem
   sym_ignore = true
   no_reorient = true
   BASIS  =  6-31+G
   EXCHANGE  =  HF
    scf_convergence = 7
    INPUT_BOHR = true 
 $end
