$molecule
0	1
6	0.00000	0.00000	0.59213
6	0.00000	2.40838	-0.99078
6	0.00000	-2.40838	-0.99078
6	0.00000	4.80076	0.61526
6	0.00000	-4.80076	0.61526
1	1.65991	0.00000	1.83813
1	-1.65991	0.00000	1.83813
1	1.65857	2.40459	-2.23415
1	-1.65857	2.40459	-2.23415
1	-1.65857	-2.40459	-2.23415
1	1.65857	-2.40459	-2.23415
1	0.00000	6.50204	-0.55811
1	0.00000	-6.50204	-0.55811
1	-1.66983	4.86964	1.83251
1	1.66983	4.86964	1.83251
1	1.66983	-4.86964	1.83251
1	-1.66983	-4.86964	1.83251
$end

$rem
   sym_ignore = true
   no_reorient = true
   BASIS  =  6-31+G
   EXCHANGE  =  HF
    scf_convergence = 7
    INPUT_BOHR = true 
 $end
