$molecule
31 2
8	1.55855	-1.50398	-0.44699
6	-2.83799	0.18304	-0.28405
1	-2.62353	0.59120	-2.29595
1	-3.89963	-1.57822	-0.08789
1	-3.93115	1.70188	0.59547
6	-0.28861	-0.05514	0.93180
1	-0.28705	-0.44845	2.95528
6	1.95547	1.17072	-0.12345
1	1.77427	2.29181	-1.83805
1	3.52550	1.68192	1.10126
$end

$rem
 SCF_GUESS = CORE
   sym_ignore = true
   no_reorient = true
   BASIS  =  6-31+G
   EXCHANGE  =  HF
    scf_convergence = 7
    INPUT_BOHR = true 
 $end
