$molecule
0	1
6	1.44001	0.00000	-2.39192
1	1.72725	2.39061	2.96333
1	-1.72725	2.39061	2.96333
1	-1.72725	-2.39061	2.96333
1	1.72725	-2.39061	2.96333
1	-2.39061	-1.72725	-2.96333
1	-2.39061	1.72725	-2.96333
1	2.39061	1.72725	-2.96333
1	2.39061	-1.72725	-2.96333
$end

$rem
   sym_ignore = true
   no_reorient = true
   BASIS  =  6-31+G
   EXCHANGE  =  HF
    scf_convergence = 7
    INPUT_BOHR = true 
 $end
