$molecule
0 1
6	0.01637	1.72483	0.00000
6	0.01388	0.37037	2.27060
6	0.01388	-2.26450	2.27701
6	0.01187	-3.59167	0.00000
6	0.01388	-2.26450	-2.27701
6	0.01388	0.37037	-2.27060
6	-0.05929	4.56880	0.00000
1	0.02236	1.39261	4.05597
1	0.02123	-3.28184	4.06223
1	0.01671	-5.64574	0.00000
1	0.02123	-3.28184	-4.06223
1	0.02236	1.39261	-4.05597
1	-2.00850	5.26446	0.00000
1	0.87889	5.33876	1.67221
1	0.87889	5.33876	-1.67221
$end

$rem
   sym_ignore = true
   no_reorient = true
   BASIS  =  6-31+G
   EXCHANGE  =  HF
    scf_convergence = 7
  unrestricted = true
    INPUT_BOHR = true 
 $end
