$molecule
0	1
6	0.00000	0.00000	0.28146
8	0.00000	0.00000	2.59321
7	0.00000	2.18596	-1.16989
7	0.00000	-2.18596	-1.16989
1	0.38878	3.75482	-0.14897
1	0.85624	2.12475	-2.87899
1	-0.38878	-3.75482	-0.14897
1	-0.85624	-2.12475	-2.87899
$end

$rem
   sym_ignore = true
   no_reorient = true
   BASIS  =  6-31+G
   EXCHANGE  =  HF
    scf_convergence = 7
    INPUT_BOHR = true 
 $end
