$molecule
5 2
  6  4.0 2.0 1.0
$end

$rem
   symmetry = off
   iprint = 200 
   pathn = 10 
   sym_ignore = true
   no_reorient = true
   BASIS  =  general 
   EXCHANGE  =  HF
   unrestricted = true
   GUI  =  2
   INPUT_BOHR = true
   SCF_CONVERGENCE = 10
   MAX_SCF_CYCLES = 200
$end

 
$basis 
C 0
P   5 1.0
10.202105081868066961328876570002058	3.909474095608990
38.00865389331553471181734981391239	0.5610994145120066
172.29153659363993971263062386568379	0.05010328706930725
1087.5337704159004146601703044229824	0.002577294750486467
13588.04271567188042839578299845946	0.00004847304935156114
P 1 1.0
0.2 1.0000
****
$end
